(set-info :source |
 Generated by Alive 0.1
 More info in N. P. Lopes, D. Menendez, S. Nagarakatte, J. Regehr.
 Provably Correct Peephole Optimizations with Alive. In PLDI'15.
|)

(set-info :status unknown)
(declare-fun %a () (_ BitVec 8))
(declare-fun %x () (_ BitVec 8))
(assert
 (let ((?x36141 (bvadd %x %a)))
 (let ((?x2120 (bvsub (_ bv0 8) %a)))
 (let ((?x38920 (bvsub %x ?x2120)))
 (let (($x26046 (and (distinct ?x38920 ?x36141) true)))
 (let (($x42152 (= (bvsub ((_ sign_extend 1) %x) ((_ sign_extend 1) ?x2120)) ((_ sign_extend 1) ?x38920))))
 (let (($x43209 (= (bvsub ((_ sign_extend 1) (_ bv0 8)) ((_ sign_extend 1) %a)) ((_ sign_extend 1) ?x2120))))
 (and $x43209 $x42152 $x26046))))))))
(check-sat)
